NAME: tsp15_2
COMMENT: 15-tsp problem (Padberg/Rinaldi)
TYPE: TSP
DIMENSION: 15
EDGE_WEIGHT_TYPE : EUC_2D
NODE_COORD_SECTION
1 9 18
2 29 3
3 36 13
4 14 26
5 3 4
6 31 11
7 7 16
8 25 33
9 16 23
10 5 22
11 31 20
12 8 39
13 2 7
14 29 18
15 34 14
